
Log for 'C:\Users\JH_PER~1\AppData\Local\Temp\1f9e58c4751f485a868e6a450c0d0b70-pulp.lp' Clone_1 (V22.1.1.0) Tue Oct 29 09:45:55 2024

Tried aggregator 1 time.
LP Presolve eliminated 6123 rows and 2898 columns.
Aggregator did 1316 substitutions.
Reduced LP has 2637 rows, 1546 columns, and 6695 nonzeros.
Presolve time = 0.02 sec. (11.34 ticks)
Symmetry aggregator did 1848 additional substitutions.
Tried aggregator 0 times.
Reduced presolve eliminated 1212 rows and 618 columns.
Reduced LP has 213 rows, 292 columns, and 593 nonzeros.
Presolve time = 0.00 sec. (0.31 ticks)
Parallel mode: using up to 30 threads for barrier.
Number of nonzeros in lower triangle of A*A' = 428
Using Approximate Minimum Degree ordering
Total time for automatic ordering = 0.00 sec. (0.04 ticks)
Summary statistics for Cholesky factor:
  Threads                   = 30
  Rows in Factor            = 213
  Integer space required    = 246
  Total non-zeros in factor = 2232
  Total FP ops to factor    = 28330
 Itn      Primal Obj        Dual Obj  Prim Inf Upper Inf  Dual Inf Inf Ratio
   0   3.4291144e+04  -2.1770497e+03  2.17e+03  5.67e+03  1.06e+03  1.00e+00
   1   6.5031113e+03  -2.0344765e+02  4.15e+02  1.09e+03  6.35e+01  6.01e-02
   2   1.2817949e+03  -8.8668964e+01  8.43e+01  2.21e+02  1.66e+01  2.18e-01
   3   1.6884621e+02  -2.6039586e+01  1.20e+01  3.14e+01  2.30e+00  1.34e+00
   4   1.3310739e+01  -1.8860328e+01  1.89e+00  4.95e+00  6.90e-01  4.80e+00
   5  -7.8855469e+00  -1.6605675e+01  4.94e-01  1.29e+00  2.38e-01  2.49e+01
   6  -1.4499874e+01  -1.5477395e+01  5.85e-02  1.53e-01  1.73e-02  5.36e+02
   7  -1.4939032e+01  -1.5421535e+01  3.01e-02  7.86e-02  4.07e-03  6.77e+03
   8  -1.5361590e+01  -1.5396204e+01  2.13e-03  5.57e-03  3.51e-04  2.41e+05
   9  -1.5392741e+01  -1.5393015e+01  1.52e-05  3.97e-05  5.48e-06  1.46e+07
  10  -1.5392966e+01  -1.5392966e+01  2.32e-09  6.00e-09  7.29e-10  1.09e+11
  11  -1.5392966e+01  -1.5392966e+01  3.15e-13  8.10e-13  5.39e-13  1.06e+15
Barrier time = 0.02 sec. (1.93 ticks)

Total time on 30 threads = 0.03 sec. (109.05 ticks)
Barrier time = 0.02 sec. (2.20 ticks)
Parallel mode: deterministic, using up to 30 threads for concurrent optimization:
 * Starting dual Simplex on 1 thread...
 * Starting primal Simplex on 1 thread...

Dual crossover.
  Dual:  Fixed no variables.
  Primal:  Fixing 83 variables.
       82 PMoves:  Infeasibility  1.83752569e+02  Objective -1.53929661e+01

Log for 'C:\Users\JH_PER~1\AppData\Local\Temp\1f9e58c4751f485a868e6a450c0d0b70-pulp.lp' Clone_1 (V22.1.1.0) Tue Oct 29 09:45:55 2024


Primal crossover.
  Primal:  Fixing 234 variables.
      233 PMoves:  Infeasibility  1.84080787e+02  Objective -1.53929661e+01
        0 PMoves:  Infeasibility  1.82125830e+02  Objective -1.53929661e+01
  Primal:  Pushed 2, exchanged 81.
        0 PMoves:  Infeasibility  1.82474482e+02  Objective -1.53915817e+01
  Primal:  Pushed 3, exchanged 231.

Iteration log . . .
Iteration:     1   Dual objective     =           -15.392966
Perturbation started.
Iteration:   101   Dual objective     =           -15.392966
  Dual:  Fixing 1 variable.
        0 DMoves:  Infeasibility  6.92192019e-02  Objective -1.53929661e+01
  Dual:  Pushed 0, exchanged 1.
Iteration:   273   Dual objective     =           -15.392932
tive     =           -15.391582
Removing shift (235).
Iteration:     8    Scaled infeas =           182.260833
Iteration:   413   Dual objective     =           -15.392915
Iteration:   189    Scaled infeas =            41.415584
Iteration:   517   Dual objective     =           -15.392906
Iteration:   346    Scaled infeas =            18.542778
Removing perturbation.

Dual simplex solved model.


Log for 'C:\Users\JH_PER~1\AppData\Local\Temp\1459233253cb4dcc8a4272817fb90832-pulp.lp' Clone_1 (V22.1.1.0) Tue Oct 29 11:07:38 2024

Tried aggregator 1 time.
DUAL formed by presolve
LP Presolve eliminated 58405 rows and 28848 columns.
Aggregator did 14120 substitutions.
Reduced LP has 14632 rows, 42903 columns, and 85525 nonzeros.
Presolve time = 0.12 sec. (193.50 ticks)
Parallel mode: using up to 30 threads for barrier.

***NOTE: Found 37 dense columns.

Number of nonzeros in lower triangle of A*A' = 16373
Using Approximate Minimum Degree ordering
Total time for automatic ordering = 0.00 sec. (1.94 ticks)
Summary statistics for Cholesky factor:
  Threads                   = 30
  Rows in Factor            = 14669
  Integer space required    = 16679
  Total non-zeros in factor = 169930
  Total FP ops to factor    = 2383274
 Itn      Primal Obj        Dual Obj  Prim Inf Upper Inf  Dual Inf Inf Ratio
   0  -1.1760567e+05   0.0000000e+00  9.83e+03  0.00e+00  5.72e+07  1.00e+00
   1  -9.6335339e+03  -6.6016638e+03  2.05e+02  0.00e+00  7.20e+06  1.18e-02
   2  -4.3798321e+03  -4.3626965e+03  2.32e+01  0.00e+00  1.62e+06  5.29e-02
   3  -3.7071877e+03  -3.8103590e+03  2.54e+00  0.00e+00  4.10e+05  2.72e-01
   4  -2.2753094e+03  -2.4437805e+03  4.67e-01  0.00e+00  1.09e+05  1.32e+00
   5  -1.1776953e+03  -1.6050863e+03  1.43e-01  0.00e+00  5.66e+04  2.56e+00
   6  -7.7689211e+02  -1.2514091e+03  5.94e-02  0.00e+00  3.86e+04  3.97e+00
   7  -5.8453790e+02  -1.1437039e+03  3.20e-02  0.00e+00  3.39e+04  4.78e+00
   8  -4.6634068e+02  -7.5768015e+02  1.92e-02  0.00e+00  1.86e+04  9.16e+00
   9  -3.5725098e+02  -5.2652449e+02  1.12e-02  0.00e+00  1.08e+04  1.83e+01
  10  -3.3639593e+02  -4.8005500e+02  9.83e-03  0.00e+00  9.36e+03  2.15e+01
  11  -3.1164253e+02  -4.4761454e+02  8.29e-03  0.00e+00  8.36e+03  2.47e+01
 Barrier aborted.
Barrier time = 0.19 sec. (186.43 ticks)

Dual simplex solved model.

